SetGridSize(20, 10, 1)
SetCellSize(15e-9, 20e-9, 50e-9)

Msat  = 16074.649
Aex   = 1.3e-12

Ku1 = 756.3
AnisU = vector(0, 0, 1)

B_ext = vector(0.5, 0, 0)
