SetGridSize(10, 10, 10)
SetCellSize(20e-9, 20e-9, 20e-9)

Msat  = 16074.649
Aex   = 1.3e-12

Ku1 = 756.3
AnisU = vector(0, 0, 1)

B_ext = vector(0.02, 0, 0)
